98805.44
74 68 73 72 85 97 96 84 86 98 105 107 106 119 131 130 120 118 108 109 104 117 121 133 128 129 132 3 5 4 16 29 28 15 17 30 37 39 38 50 63 62 49 51 67 61 40 41 60 66 52 48 36 31 26 27 6 7 2 14 18 19 25 8 9 13 20 24 32 35 43 42 53 59 58 47 54 65 57 44 45 56 64 55 46 34 33 21 12 0 11 22 23 10 1 134 125 124 135 123 114 102 113 112 115 122 126 127 116 110 111 103 100 92 88 91 90 101 89 80 71 79 78 70 81 77 76 93 82 99 87 83 69 75 94 95